attachment/production/4-raw-costs/production-raw-costs.log
GLPSOL: GLPK LP/MIP Solver, v4.65
Parameter(s) specified in the command line:
 -m production-raw-costs.mod -d production-raw-costs.dat --log production-raw-costs.log
Reading model section from production-raw-costs.mod...
38 lines were read
Reading data section from production-raw-costs.dat...
53 lines were read
Generating Usage_Calc...
Generating Total_Revenue_Calc...
Generating Profit_Calc...
Generating Profit...
Model has been successfully generated
GLPK Simplex Optimizer, v4.65
7 rows, 9 columns, 26 non-zeros
Preprocessing...
4 rows, 3 columns, 11 non-zeros
Scaling...
 A: min|aij| =  1.000e+00  max|aij| =  4.500e+03  ratio =  4.500e+03
GM: min|aij| =  4.317e-01  max|aij| =  2.317e+00  ratio =  5.367e+00
EQ: min|aij| =  1.863e-01  max|aij| =  1.000e+00  ratio =  5.367e+00
Constructing initial basis...
Size of triangular part is 4
      0: obj =   7.265000000e+03 inf =   1.343e+02 (2)
      3: obj =   1.577451613e+03 inf =   0.000e+00 (0)
OPTIMAL LP SOLUTION FOUND
Time used:   0.0 secs
Memory used: 0.1 Mb (134505 bytes)
Total Revenue: 22453.9
Profit: 1577.45
Production of P1: 25.4839
Production of P2: 164.516
Production of P3: 10
Usage of A: 13322.6, remaining: 9677.42
Usage of B: 31000, remaining: 0
Usage of C: 291065, remaining: 158935
Usage of D: 200, remaining: 0
Model has been successfully processed
